
-2.8
-2.8
-2.8
-2.7
-2.6
-2.6
-2.6
-2.6
-2.6
-2.6
-2.6
-2.6
-2.6
-2.6
-2.6
-2.6
-2.6
-2.6
-2.6
-2.6
-2.6
-2.75
-2.75
-2.7
-2.7
-2.7
-2.7
-2.7
-2.65
-2.65
-2.6
-2.6
-2.6
-2.6
-2.55
-2.55
-2.55
-2.55
-2.55
-2.55
-2.55